[on. 05. april 13:05:28 +0200 2023]  ./input/alternate_g_np_100/100-2-3.gcc
Set parameter Username
Academic license - for non-commercial use only - expires 2024-03-28
Set parameter TimeLimit to value 1800
Set parameter PreCrush to value 1
Set parameter LazyConstraints to value 1
Gurobi Optimizer version 10.0.1 build v10.0.1rc0 (linux64)

CPU model: AMD Ryzen 9 5950X 16-Core Processor, instruction set [SSE2|AVX|AVX2]
Thread count: 16 physical cores, 32 logical processors, using up to 32 threads

Optimize a model with 101 rows, 200 columns and 400 nonzeros
Model fingerprint: 0xc45046f7
Variable types: 0 continuous, 200 integer (200 binary)
Coefficient statistics:
  Matrix range     [1e+00, 1e+00]
  Objective range  [1e+00, 1e+02]
  Bounds range     [1e+00, 1e+00]
  RHS range        [1e+00, 1e+00]
Presolve time: 0.00s
Presolved: 101 rows, 200 columns, 400 nonzeros
Variable types: 0 continuous, 200 integer (200 binary)

Root relaxation: objective 4.661000e+03, 1 iterations, 0.00 seconds (0.00 work units)

    Nodes    |    Current Node    |     Objective Bounds      |     Work
 Expl Unexpl |  Obj  Depth IntInf | Incumbent    BestBd   Gap | It/Node Time

     0     0 4661.00000    0    -          - 4661.00000      -     -    0s
     0     0 4661.00000    0    -          - 4661.00000      -     -    0s
     0     0 4661.00000    0    -          - 4661.00000      -     -    0s
     0     0 4661.00000    0   10          - 4661.00000      -     -    0s
     0     0 4653.00000    0    8          - 4653.00000      -     -    0s
     0     0 4653.00000    0    -          - 4653.00000      -     -    0s
     0     0 4653.00000    0   12          - 4653.00000      -     -    0s
     0     2 4653.00000    0   12          - 4653.00000      -     -    0s
 25745 10115 4070.00000   38   41          - 4183.00000      -   9.5    5s
 40425 18573 3779.00000   42    -          - 4157.00000      -  11.5   10s
*40869 18455              41    3514.0000000 4157.00000  18.3%  11.6   10s
*41383 18714              44    3523.0000000 4157.00000  18.0%  11.7   10s
*41426 18038              39    3728.0000000 4157.00000  11.5%  11.7   10s
*41506 17603              34    3764.0000000 4157.00000  10.4%  11.7   10s
 50420 22078 3829.00000   42    7 3764.00000 4145.00000  10.1%  13.4   15s
 59008 24396 3819.72727   42   68 3764.00000 4135.00000  9.86%  15.2   20s
 65558 25319 3943.50000   38   91 3764.00000 4132.00000  9.78%  16.5   25s
 73060 24109 3867.50000   43   36 3764.00000 4095.00000  8.79%  17.4   30s
 83938 22659 3960.00000   21    - 3764.00000 4065.00000  8.00%  18.7   35s
 91091 22536 3909.00000   44   71 3764.00000 4043.00000  7.41%  19.2   40s
*94195 11451              17    3862.0000000 4042.00000  4.66%  19.3   42s
*97173  1066              17    3946.0000000 4042.00000  2.43%  19.3   43s

Cutting planes:
  User: 68
  Lazy constraints: 5431

Explored 100827 nodes (1938192 simplex iterations) in 44.49 seconds (31.44 work units)
Thread count was 32 (of 32 available processors)

Solution count 6: 3946 3862 3764 ... 3514

Optimal solution found (tolerance 1.00e-04)
Best objective 3.946000000000e+03, best bound 3.946000000000e+03, gap 0.0000%

User-callback calls 206949, time in user-callback 15.27 sec
Minimal separator inequalities added: 139242
Indegree inequalities added: 0
Passed solution check
[on. 05. april 13:06:13 +0200 2023]  done

